20
    1    91    29
    2    60    65
    3    61    71
    4     9    60
    5    79    45
    6    46    71
    7    19    22
    8    57    97
   14    31    89
   18    43    25
   19   100    82
   20    27    19
524